jobs  (incl. supersource/sink ):	52
RESOURCES
- renewable                 : 2 R
- nonrenewable              : 2 N
- doubly constrained        : 0 D
************************************************************************
PRECEDENCE RELATIONS:
jobnr.    #modes  #successors   successors
1	1	6		2 3 4 5 6 11 
2	3	4		14 12 10 7 
3	3	4		14 12 9 7 
4	3	2		9 8 
5	3	5		29 23 17 14 13 
6	3	2		17 9 
7	3	6		29 23 22 19 17 13 
8	3	4		17 15 14 12 
9	3	5		29 23 22 19 13 
10	3	5		29 23 22 17 13 
11	3	6		29 23 22 18 17 16 
12	3	5		29 26 22 18 16 
13	3	2		26 15 
14	3	7		26 25 24 22 21 20 19 
15	3	2		18 16 
16	3	5		32 27 25 24 21 
17	3	3		25 24 20 
18	3	3		28 24 20 
19	3	6		35 34 32 31 30 28 
20	3	5		34 32 31 30 27 
21	3	5		38 35 31 30 28 
22	3	5		38 35 34 30 28 
23	3	2		26 24 
24	3	5		41 40 34 33 30 
25	3	2		30 28 
26	3	4		41 38 33 30 
27	3	4		40 36 35 33 
28	3	4		41 40 36 33 
29	3	3		45 41 30 
30	3	3		43 37 36 
31	3	3		45 43 37 
32	3	2		38 37 
33	3	2		45 37 
34	3	2		45 36 
35	3	5		51 50 45 44 41 
36	3	4		51 46 44 39 
37	3	3		51 44 39 
38	3	4		51 50 49 45 
39	3	3		50 47 42 
40	3	3		50 46 42 
41	3	2		46 42 
42	3	2		49 48 
43	3	2		49 48 
44	3	1		47 
45	3	1		46 
46	3	1		48 
47	3	1		48 
48	3	1		52 
49	3	1		52 
50	3	1		52 
51	3	1		52 
52	1	0		
************************************************************************
REQUESTS/DURATIONS
jobnr.	mode	dur	R1	R2	N1	N2	
------------------------------------------------------------------------
1	1	0	0	0	0	0	
2	1	2	10	9	8	3	
	2	5	8	4	6	2	
	3	10	7	2	6	1	
3	1	6	3	5	8	5	
	2	9	2	5	4	4	
	3	10	2	4	4	3	
4	1	7	6	7	7	8	
	2	9	4	7	5	7	
	3	10	4	5	4	6	
5	1	3	5	5	4	8	
	2	6	3	4	4	5	
	3	7	2	4	4	4	
6	1	2	7	8	6	6	
	2	3	5	7	4	6	
	3	5	4	7	4	6	
7	1	2	2	5	5	7	
	2	7	1	4	4	7	
	3	10	1	4	3	7	
8	1	1	8	10	5	4	
	2	9	5	7	4	4	
	3	10	3	6	4	4	
9	1	6	5	9	4	4	
	2	7	4	8	3	4	
	3	8	2	7	2	4	
10	1	5	9	9	3	9	
	2	8	9	5	1	6	
	3	10	7	5	1	5	
11	1	1	3	1	8	8	
	2	2	2	1	7	7	
	3	9	2	1	5	6	
12	1	4	3	5	6	6	
	2	6	3	5	5	4	
	3	8	3	4	4	3	
13	1	5	5	6	8	1	
	2	7	3	4	4	1	
	3	10	1	2	4	1	
14	1	2	9	8	3	9	
	2	4	8	6	3	7	
	3	10	7	5	3	4	
15	1	2	5	5	7	6	
	2	7	4	3	5	6	
	3	10	3	1	5	4	
16	1	4	10	8	3	8	
	2	7	6	4	3	6	
	3	10	5	3	3	4	
17	1	6	5	7	8	3	
	2	9	4	7	6	2	
	3	10	4	7	6	1	
18	1	5	10	8	9	1	
	2	8	9	7	6	1	
	3	10	8	7	4	1	
19	1	3	6	7	10	6	
	2	4	6	5	6	4	
	3	6	6	5	6	2	
20	1	5	7	7	5	6	
	2	8	7	7	5	5	
	3	9	7	7	4	5	
21	1	2	4	7	5	5	
	2	4	4	6	5	3	
	3	5	4	5	5	3	
22	1	2	9	6	6	10	
	2	7	5	6	5	9	
	3	9	4	5	4	9	
23	1	5	10	9	8	9	
	2	6	9	8	8	8	
	3	10	8	8	8	8	
24	1	1	4	8	2	10	
	2	3	3	7	1	8	
	3	4	3	7	1	7	
25	1	4	10	4	9	5	
	2	6	7	4	8	4	
	3	10	7	4	4	4	
26	1	3	7	6	5	5	
	2	5	4	5	4	5	
	3	7	2	4	2	4	
27	1	5	7	8	6	3	
	2	8	6	3	5	2	
	3	9	6	2	5	1	
28	1	5	9	4	6	6	
	2	9	4	3	3	3	
	3	10	3	3	1	1	
29	1	3	10	6	9	6	
	2	7	9	4	8	5	
	3	10	8	4	6	5	
30	1	2	5	3	3	9	
	2	5	4	2	3	9	
	3	8	3	2	2	7	
31	1	4	8	4	9	7	
	2	5	8	2	6	3	
	3	8	5	2	2	2	
32	1	2	7	9	4	3	
	2	7	5	8	2	2	
	3	9	5	7	2	2	
33	1	2	6	4	1	6	
	2	9	4	4	1	4	
	3	10	3	4	1	3	
34	1	1	4	7	5	10	
	2	1	4	6	5	11	
	3	2	4	6	5	10	
35	1	2	7	6	6	8	
	2	3	6	6	6	7	
	3	7	4	5	6	4	
36	1	1	8	5	5	9	
	2	4	7	4	3	10	
	3	5	7	4	3	9	
37	1	5	9	5	10	9	
	2	6	7	2	7	5	
	3	7	6	2	2	2	
38	1	3	9	9	5	9	
	2	7	8	9	4	9	
	3	8	8	9	3	9	
39	1	2	7	6	3	7	
	2	3	6	3	2	7	
	3	6	6	2	2	1	
40	1	3	7	9	10	4	
	2	6	5	8	9	4	
	3	10	4	8	9	4	
41	1	3	6	9	9	7	
	2	4	2	7	8	6	
	3	8	1	4	7	4	
42	1	1	9	7	5	3	
	2	3	6	6	3	2	
	3	10	3	5	3	2	
43	1	4	6	9	4	4	
	2	6	5	8	3	3	
	3	10	4	5	2	2	
44	1	1	5	9	8	8	
	2	2	5	6	5	6	
	3	7	5	6	2	6	
45	1	1	8	8	1	5	
	2	2	8	8	1	4	
	3	3	6	7	1	5	
46	1	3	5	3	8	7	
	2	6	3	2	7	7	
	3	8	3	2	7	6	
47	1	5	9	7	8	2	
	2	6	9	5	4	1	
	3	8	9	3	4	1	
48	1	6	2	6	6	4	
	2	7	2	5	5	3	
	3	10	1	3	4	3	
49	1	1	7	6	9	8	
	2	3	7	5	8	7	
	3	7	6	5	6	4	
50	1	3	5	5	6	5	
	2	7	3	4	6	5	
	3	8	3	3	3	2	
51	1	2	8	7	9	6	
	2	3	5	7	8	5	
	3	4	5	7	7	5	
52	1	0	0	0	0	0	
************************************************************************

 RESOURCE AVAILABILITIES 
	R 1	R 2	N 1	N 2
	25	25	279	282

************************************************************************
